c turning on binary mode checking
c parsing input formula with 259840 variables and 1039929 clauses
c finished parsing, read 23040863 bytes from proof file
c detected empty clause; start verification via backward checking
c 5066 of 1039929 clauses in core                            
c 3811 of 593842 lemmas in core using 37067 resolution steps
c 0 RAT lemmas in core; 156 redundant literals in core lemmas
s VERIFIED
c verification time: 2.454 seconds
